coords = array2d(1..66, 1..2, [956, 488, 841, 803, 302, 897, 242, 825, 938,
    161, 566, 519, 853, 954, 947, 76, 808, 757, 50, 199, 299, 623,
    583, 52, 974, 138, 2, 361, 394, 302, 187, 296, 415, 707, 223, 552,
    82, 557, 746, 26, 698, 548, 166, 819, 320, 409, 242, 58, 224, 199,
    317, 556, 110, 590, 477, 873, 623, 764, 332, 806, 155, 697, 63,
    544, 683, 531, 359, 75, 479, 137, 234, 663, 176, 277, 164, 151,
    220, 298, 479, 830, 415, 119, 146, 949, 536, 227, 849, 77, 490,
    422, 520, 172, 962, 552, 383, 375, 847, 919, 849, 234, 18, 21,
    618, 231, 477, 962, 474, 11, 527, 973, 885, 530, 265, 858, 340,
    425, 813, 550, 425, 620, 110, 165, 110, 688, 754, 890, 99, 241,
    21, 685, 979, 798]);

n = 66;

